47 59 9 38 72 19 18 3 97 
29 61 87 6 46 100 
88 5 22 24 77 
82 50 
4 78 90 84 
31 11 12 71 28 49 13 65 96 
95 75 85 94 81 35 69 42 
66 93 
73 67 74 60 58 
48 25 
53 
52 36 40 56 8 
98 63 41 33 23 44 68 
79 34 62 
2 16 26 32 37 39 17 
64 99 80 20 89 
83 54 
51 14 70 
92 27 30 76 21 7 45 57 86 15 10 55 1 43 91 

